0000000000000000
0000000000000000
0001100000011110
0001100000011110
0011100000011110
0001110000111000
0001111001111000
0000111111100000
0000011111100000
0000111111111000
0001110000111000
0011100000011110
0111000000001111
0111000000001111
0111000000001111
0000000000000000